Traveling Salesman Problem/TSP_generados/Aleatorio1621103341_10.tsp
NAME: Aleatorio1621103341_10.tsp
COMMENT: Randomly generated scenario
TYPE: TSP
DIMENSION: 10
EDGE_WEIGHT_TYPE: ATT
NODE_COORD_SECTION
1 49.51 43.88
2 20.38 34.84
3 46.59 19.24
4 2.74 33.61
5 7.75 37.0
6 26.39 46.56
7 15.75 42.36
8 43.34 0.8
9 28.91 32.42
10 34.37 34.28
