Traveling Salesman Problem/TSP_generados/Aleatorio1621103341_10.opt.tour
NAME: Aleatorio1621103341_10.opt.tour
COMMENT: Optimal solution for Aleatorio1621103341_10 (160.90755210184489)
TYPE: TOUR
DIMENSION: 10
TOUR_SECTION
1 6 7 5 4 2 9 10 8 3
-1
EOF
